NAME : in_house_8_10
TYPE : TSP
DIMENSION : 8
EDGE_WEIGHT_TYPE : EXPLICIT
EDGE_WEIGHT_FORMAT : UPPER_ROW
COMMENT : INVERSION_SHIFT=7
EDGE_WEIGHT_SECTION
4
26
20
25
58
1
14
26
3
25
20
35
62
3
46
40
60
64
19
36
9
17
3
21
43
31
61
5
